0
0
0
0
17
0
0
0
0
0
0
0
0
0
0
0
0
0
0
0
0
0
1 2 1
1 3 1
1 4 1
1 5 0
1 6 0
1 7 1
1 8 1
1 9 0
1 10 1
1 11 0
1 12 0
1 13 0
1 14 0
1 15 0
1 16 0
1 17 1
2 3 1
2 4 1
2 5 1
2 6 1
2 7 0
2 8 1
2 9 1
2 10 0
2 11 0
2 12 0
2 13 0
2 14 0
2 15 1
2 16 0
2 17 1
3 4 1
3 5 0
3 6 1
3 7 1
3 8 1
3 9 1
3 10 1
3 11 0
3 12 0
3 13 1
3 14 1
3 15 0
3 16 0
3 17 0
4 5 0
4 6 1
4 7 1
4 8 1
4 9 0
4 10 0
4 11 1
4 12 0
4 13 1
4 14 0
4 15 1
4 16 1
4 17 1
5 6 1
5 7 1
5 8 0
5 9 1
5 10 1
5 11 0
5 12 1
5 13 1
5 14 0
5 15 0
5 16 0
5 17 0
6 7 0
6 8 1
6 9 1
6 10 0
6 11 0
6 12 0
6 13 1
6 14 0
6 15 0
6 16 0
6 17 1
7 8 1
7 9 0
7 10 1
7 11 1
7 12 0
7 13 0
7 14 0
7 15 0
7 16 0
7 17 1
8 9 1
8 10 0
8 11 0
8 12 0
8 13 0
8 14 1
8 15 1
8 16 0
8 17 1
9 10 0
9 11 0
9 12 0
9 13 0
9 14 0
9 15 0
9 16 0
9 17 0
10 11 1
10 12 1
10 13 1
10 14 1
10 15 0
10 16 0
10 17 0
11 12 0
11 13 0
11 14 0
11 15 1
11 16 1
11 17 1
12 13 0
12 14 0
12 15 0
12 16 1
12 17 1
13 14 1
13 15 0
13 16 0
13 17 0
14 15 0
14 16 1
14 17 1
15 16 1
15 17 1
16 17 1
